tsp_instances/TSP20/instance24.tsp
NODE_COORD_SECTION
0 42 66
1 117 199
2 74 1
3 162 150
4 135 129
5 124 60
6 162 106
7 171 16
8 91 196
9 39 84
10 72 112
11 71 165
12 39 153
13 152 5
14 142 98
15 68 36
16 186 142
17 82 100
18 120 48
19 159 178
