tsp_instances/TSP20/instance24.opt.tour
TOUR_SECTION
1
10
18
11
13
12
9
2
20
17
4
5
7
15
6
19
8
14
3
16
-1